% seed = 0

mint = 43;
% maxt = 181;

nActs = 62;
dur = [0,2,4,6,1,5,5,4,2,3,2,5,3,1,2,1,5,1,4,1,6,4,5,1,3,3,3,6,3,3,2,2,2,2,3,4,5,3,4,1,2,2,3,3,3,2,3,4,1,5,2,4,2,1,5,3,2,1,6,2,3,0];

nSkills = 15;
sreq = [| 0,0,0,0,0,0,0,0,0,0,0,0,0,0,0,
	| 0,1,1,0,0,0,0,0,0,0,0,0,0,1,2,
	| 0,0,0,0,0,0,0,0,0,0,0,0,0,1,1,
	| 0,0,0,0,0,0,0,0,0,0,0,0,0,0,2,
	| 1,0,0,0,0,0,0,3,0,0,1,1,0,0,1,
	| 0,0,1,0,0,0,0,0,0,0,0,0,0,0,0,
	| 0,0,0,0,0,0,0,0,0,0,0,2,0,0,1,
	| 0,0,0,0,0,0,0,0,0,0,0,1,0,0,0,
	| 0,0,0,1,0,0,0,0,0,0,0,3,0,1,1,
	| 0,0,0,0,0,0,0,0,1,0,0,1,0,0,3,
	| 0,0,0,0,0,1,1,0,0,0,0,1,0,1,2,
	| 0,0,1,0,1,1,0,0,0,0,1,0,0,0,2,
	| 0,0,0,0,0,0,0,0,0,0,0,0,0,0,1,
	| 1,0,0,0,0,0,0,0,0,0,0,1,1,0,3,
	| 0,0,0,0,0,0,0,0,0,1,0,0,0,1,2,
	| 0,0,0,1,1,0,1,0,0,1,0,1,0,1,0,
	| 0,0,1,0,0,0,0,0,0,0,0,1,1,0,0,
	| 0,0,1,0,0,1,1,0,0,0,0,2,0,0,2,
	| 0,0,0,0,0,0,0,1,0,0,0,1,0,0,0,
	| 0,0,1,0,0,0,0,0,1,0,0,0,0,0,0,
	| 0,0,0,1,0,0,0,0,0,0,0,0,0,0,0,
	| 0,1,0,0,0,0,0,1,2,0,0,0,0,0,3,
	| 0,0,0,0,1,0,0,0,0,0,0,0,1,0,0,
	| 0,0,0,1,0,0,0,1,0,1,0,0,0,0,0,
	| 0,0,1,0,0,0,0,0,1,1,0,0,0,1,2,
	| 0,0,0,0,0,0,0,0,0,0,0,0,0,0,2,
	| 0,0,0,0,0,0,0,0,0,0,0,0,0,1,2,
	| 0,0,0,0,1,0,0,0,1,2,0,0,0,0,0,
	| 0,0,0,0,0,0,0,1,0,0,1,0,0,0,0,
	| 0,0,0,0,1,0,1,2,0,1,0,1,0,0,1,
	| 0,0,0,0,0,0,0,0,0,0,0,1,0,0,0,
	| 0,0,0,0,1,0,0,1,0,0,0,0,0,0,1,
	| 0,0,1,0,1,0,0,0,0,0,0,1,0,0,1,
	| 0,1,0,0,0,2,0,0,0,0,0,0,0,0,2,
	| 0,0,0,0,0,0,0,0,0,0,0,0,0,1,0,
	| 1,0,0,0,0,1,1,1,0,0,0,0,0,0,2,
	| 0,0,0,0,1,0,0,0,1,0,0,0,0,0,2,
	| 0,0,0,0,0,1,0,1,0,0,0,0,0,2,3,
	| 0,0,0,0,1,0,1,1,1,0,0,1,0,0,0,
	| 0,0,0,0,0,0,0,0,0,0,0,2,0,0,2,
	| 0,0,0,0,2,0,0,1,0,0,0,0,0,0,1,
	| 0,0,1,0,0,0,0,0,0,0,0,0,0,0,1,
	| 0,0,1,0,0,1,0,1,0,0,0,1,0,1,2,
	| 1,0,0,0,0,0,1,0,0,0,0,1,0,0,0,
	| 0,0,0,0,1,1,0,0,1,0,1,1,1,0,1,
	| 0,0,0,1,0,2,0,1,0,0,0,2,0,0,1,
	| 1,0,0,0,0,0,0,2,0,0,0,0,1,1,2,
	| 0,0,0,0,0,0,0,0,0,0,0,0,0,1,0,
	| 0,0,0,0,1,2,0,0,0,0,1,1,0,0,2,
	| 0,0,1,0,1,0,0,0,0,0,0,0,0,0,1,
	| 0,0,0,0,0,1,0,1,0,0,0,1,0,1,1,
	| 0,0,0,0,1,0,1,0,1,0,0,0,0,0,2,
	| 0,0,0,0,0,0,0,1,0,0,0,0,1,0,1,
	| 0,0,0,0,0,1,0,1,0,0,0,1,0,0,2,
	| 0,0,0,0,0,1,0,1,1,0,0,1,0,0,1,
	| 1,0,1,0,2,0,1,1,0,0,0,0,0,0,1,
	| 0,0,1,0,0,0,1,0,0,0,1,0,0,0,0,
	| 0,0,0,0,0,0,1,0,1,0,0,0,0,0,0,
	| 0,0,1,0,1,1,0,0,0,0,0,0,1,1,0,
	| 0,0,0,0,0,0,0,0,0,0,0,0,0,0,1,
	| 0,0,0,0,0,1,0,0,0,0,0,0,0,0,0,
	| 0,0,0,0,0,0,0,0,0,0,0,0,0,0,0, |];

% SumOfsreq = 242;

nResources = 23;
mastery = [| false,false,false,false,true,true,true,true,true,false,false,false,false,false,false,
	| false,false,false,false,false,false,false,false,false,false,false,false,false,false,true,
	| false,false,false,false,false,false,false,false,false,false,false,false,false,false,true,
	| false,false,false,true,true,true,false,false,false,true,true,true,true,true,true,
	| false,false,false,false,false,false,false,true,true,false,false,false,false,false,false,
	| true,true,true,false,false,false,false,false,false,false,false,false,false,false,false,
	| false,false,false,false,true,true,false,false,false,false,false,false,false,false,false,
	| false,false,false,false,false,false,false,false,false,false,false,false,false,false,true,
	| false,false,true,false,false,false,false,false,false,false,false,false,false,false,false,
	| false,false,false,false,false,false,false,false,false,false,false,false,false,false,true,
	| false,false,false,false,false,false,true,true,true,false,false,false,false,false,false,
	| false,false,false,false,false,false,true,true,true,false,false,false,false,false,false,
	| false,false,false,false,true,true,false,false,false,false,false,false,false,false,false,
	| false,false,false,true,true,true,false,false,false,false,false,false,false,false,false,
	| false,false,false,false,false,false,false,false,false,false,false,true,false,false,false,
	| false,false,false,false,false,false,false,false,false,false,false,false,false,false,true,
	| false,false,false,false,false,false,true,true,true,true,true,true,false,false,false,
	| false,false,false,false,false,false,true,true,true,false,false,false,true,true,true,
	| false,false,false,false,false,false,false,false,false,false,false,true,false,false,false,
	| false,false,false,false,true,true,false,false,false,false,false,false,false,true,true,
	| false,false,false,false,false,false,false,false,false,false,false,false,true,true,true,
	| false,false,false,false,false,false,false,false,false,false,false,false,false,false,true,
	| false,false,false,false,false,true,false,false,false,false,false,false,false,false,false, |];

nPrecs = 93;
pred = [1,1,1,2,2,2,3,3,3,4,4,4,5,5,5,6,6,7,8,8,8,9,9,10,10,11,11,11,12,12,13,14,14,14,15,15,16,16,17,17,18,18,19,20,20,21,22,23,24,25,26,26,27,27,28,28,29,29,30,31,32,33,34,35,35,36,37,38,38,39,40,41,42,43,43,44,45,46,47,48,49,50,51,52,53,54,55,56,57,58,59,60,61];
succ = [2,3,4,10,5,15,29,14,7,16,12,8,24,6,22,17,38,23,9,20,40,35,13,11,45,26,44,37,27,21,18,18,19,34,25,59,58,55,43,32,33,28,28,27,31,39,31,51,48,40,49,54,51,30,61,47,41,57,56,43,57,39,44,36,39,42,58,50,60,53,53,46,48,58,51,50,53,56,52,55,60,61,60,54,56,55,57,61,59,59,62,62,62];

nUnrels = 1362;
unpred = [2,2,2,2,2,2,2,2,2,2,2,2,2,2,2,2,2,2,2,2,2,2,2,2,2,2,2,2,3,3,3,3,3,3,3,3,3,3,3,3,3,3,3,3,3,3,3,3,3,3,3,3,3,3,3,3,3,3,3,3,3,4,4,4,4,4,4,4,4,4,4,4,4,4,4,4,4,4,4,4,4,4,4,4,4,4,5,5,5,5,5,5,5,5,5,5,5,5,5,5,5,5,5,5,5,5,5,5,5,5,5,5,5,5,5,5,5,5,5,5,5,5,5,5,5,6,6,6,6,6,6,6,6,6,6,6,6,6,6,6,6,6,6,6,6,6,6,6,6,6,6,6,6,6,6,6,6,6,6,6,6,6,6,6,6,6,6,6,6,7,7,7,7,7,7,7,7,7,7,7,7,7,7,7,7,7,7,7,7,7,7,7,7,7,7,7,7,7,7,7,7,7,7,7,7,7,7,7,7,7,7,7,7,7,7,7,7,7,7,7,8,8,8,8,8,8,8,8,8,8,8,8,8,8,8,8,8,8,8,8,8,8,8,8,8,9,9,9,9,9,9,9,9,9,9,9,9,9,9,9,9,9,9,9,9,9,9,9,9,9,9,9,9,9,9,9,9,9,9,10,10,10,10,10,10,10,10,10,10,10,10,10,10,10,10,10,10,10,10,10,10,10,10,10,10,10,10,10,10,10,10,10,10,10,11,11,11,11,11,11,11,11,11,11,11,11,11,11,11,11,11,11,11,11,11,11,11,11,11,11,11,11,11,11,11,11,11,11,11,11,11,11,12,12,12,12,12,12,12,12,12,12,12,12,12,12,12,12,12,12,12,12,12,12,12,12,12,12,12,12,12,12,12,12,12,12,12,12,12,12,12,12,13,13,13,13,13,13,13,13,13,13,13,13,13,13,13,13,13,13,13,13,13,13,13,13,13,13,13,13,13,13,13,13,13,13,13,14,14,14,14,14,14,14,14,14,14,14,14,14,14,14,14,14,14,14,14,14,14,14,14,14,14,14,14,14,14,15,15,15,15,15,15,15,15,15,15,15,15,15,15,15,15,15,15,15,15,15,15,15,15,15,15,15,15,15,15,15,15,15,15,15,15,15,15,15,15,16,16,16,16,16,16,16,16,16,16,16,16,16,16,16,16,16,16,16,16,16,16,16,16,16,16,16,16,16,16,16,16,16,16,16,16,16,16,16,16,16,17,17,17,17,17,17,17,17,17,17,17,17,17,17,17,17,17,17,17,17,17,17,17,17,17,17,17,17,17,17,17,17,17,17,17,17,17,18,18,18,18,18,18,18,18,18,18,18,18,18,18,18,18,18,18,18,18,18,18,18,18,18,18,18,18,18,18,18,19,19,19,19,19,19,19,19,19,19,19,19,19,19,19,19,19,19,19,19,19,19,19,19,19,19,19,19,19,19,19,19,19,19,20,20,20,20,20,20,20,20,20,20,20,20,20,20,20,20,20,20,20,20,20,20,20,20,20,20,20,20,20,20,20,21,21,21,21,21,21,21,21,21,21,21,21,21,21,21,21,21,21,21,21,21,21,21,21,21,21,21,21,21,21,21,21,21,21,21,21,22,22,22,22,22,22,22,22,22,22,22,22,22,22,22,22,22,22,22,22,22,22,22,22,22,22,22,22,22,22,22,22,22,23,23,23,23,23,23,23,23,23,23,23,23,23,23,23,23,23,23,23,23,23,23,23,23,23,23,23,23,23,23,23,23,23,23,23,23,24,24,24,24,24,24,24,24,24,24,24,24,24,24,24,24,24,24,24,24,24,24,24,24,24,24,24,24,24,24,24,24,24,25,25,25,25,25,25,25,25,25,25,25,25,25,25,25,25,25,25,25,25,25,25,25,25,25,25,25,25,25,25,25,25,26,26,26,26,26,26,26,26,26,26,26,26,26,26,26,26,26,26,26,26,26,26,26,26,26,26,26,26,26,27,27,27,27,27,27,27,27,27,27,27,27,27,27,27,27,27,27,27,27,27,27,27,27,27,27,27,27,27,28,28,28,28,28,28,28,28,28,28,28,28,28,28,28,28,28,28,28,28,28,28,28,28,28,28,29,29,29,29,29,29,29,29,29,29,29,29,29,29,29,29,29,29,29,29,29,29,29,29,29,29,30,30,30,30,30,30,30,30,30,30,30,30,30,30,30,30,30,30,30,30,30,30,30,30,30,30,30,30,30,31,31,31,31,31,31,31,31,31,31,31,31,31,31,31,31,31,31,31,31,31,31,31,31,31,32,32,32,32,32,32,32,32,32,32,32,32,32,32,32,32,32,32,32,32,32,32,32,32,32,32,32,33,33,33,33,33,33,33,33,33,33,33,33,33,33,33,33,33,33,33,33,33,33,33,33,34,34,34,34,34,34,34,34,34,34,34,34,34,34,34,34,34,34,34,34,34,34,34,34,35,35,35,35,35,35,35,35,35,35,35,35,35,35,35,35,36,36,36,36,36,36,36,36,36,36,36,36,36,36,36,36,36,36,36,36,37,37,37,37,37,37,37,37,37,37,37,37,37,37,37,37,37,37,37,37,37,37,38,38,38,38,38,38,38,38,38,38,38,38,38,38,38,38,38,38,38,38,39,39,39,39,39,39,39,39,39,39,39,39,39,39,39,39,39,39,39,40,40,40,40,40,40,40,40,40,40,40,40,40,40,40,40,40,40,41,41,41,41,41,41,41,41,41,41,41,41,41,41,41,41,41,42,42,42,42,42,42,42,42,42,42,42,42,42,42,42,43,43,43,43,43,43,43,43,43,43,43,43,43,43,44,44,44,44,44,44,44,44,44,44,44,44,44,44,44,45,45,45,45,45,45,45,45,45,45,45,45,45,46,46,46,46,46,46,46,46,46,46,46,46,46,47,47,47,47,47,47,47,47,47,48,48,48,48,48,48,48,48,48,48,49,49,49,49,49,49,49,49,49,49,49,50,50,50,50,50,50,50,50,50,50,51,51,51,51,51,51,51,51,51,52,52,52,52,52,53,53,53,53,53,53,54,54,54,54,55,55,55,55,56,56,56,56,57,57,57,58,58,59,59,60];
unsucc = [3,4,7,8,9,12,13,14,16,18,19,20,21,23,27,28,29,30,33,34,35,36,39,41,42,46,47,52,4,5,6,8,9,10,11,12,13,15,16,17,20,21,22,24,25,26,27,30,31,32,35,36,37,38,40,42,43,45,48,49,58,5,6,7,10,11,14,15,17,19,22,23,24,25,26,29,32,34,37,38,41,44,45,46,49,50,7,8,9,10,11,12,13,14,15,16,18,19,20,21,23,25,26,27,28,29,30,33,34,35,36,37,39,40,41,42,44,45,46,47,49,52,53,54,56,7,8,9,10,11,12,13,14,15,16,18,19,20,21,22,23,24,25,26,27,28,29,30,31,33,34,35,36,37,39,40,41,42,44,45,46,47,48,49,52,53,54,55,56,8,9,10,11,12,13,14,15,16,17,18,19,20,21,22,24,25,26,27,28,29,30,31,32,33,34,35,36,37,38,39,40,41,42,43,44,45,46,47,48,49,50,52,53,54,55,56,57,58,59,61,10,11,12,14,15,16,17,19,21,22,23,24,25,26,29,32,34,37,38,41,44,45,46,49,50,10,11,12,14,15,16,17,19,20,21,22,23,24,25,26,27,29,30,31,32,34,37,38,40,41,43,44,45,46,49,50,51,58,60,12,13,14,15,16,17,18,19,20,21,22,23,24,25,27,28,29,30,31,32,33,34,35,36,38,39,40,41,42,43,46,47,48,51,52,12,13,14,15,16,17,18,19,20,21,22,23,24,25,27,28,29,30,31,32,33,34,35,36,38,39,40,41,42,43,45,46,47,48,51,52,53,56,13,14,15,16,17,18,19,20,22,23,24,25,26,28,29,31,32,33,34,35,36,37,38,40,41,42,43,44,45,46,47,48,49,50,52,54,55,57,58,59,14,15,16,17,19,20,21,22,23,24,25,26,27,29,30,31,32,34,35,36,37,38,40,41,42,43,44,45,46,48,49,50,51,58,60,15,16,17,20,21,22,23,24,25,26,27,29,30,31,32,35,36,37,38,40,41,42,43,45,46,48,49,51,58,60,16,17,18,19,20,21,22,23,24,26,27,28,29,30,31,32,33,34,35,36,37,38,39,41,42,43,44,45,46,47,48,49,50,51,52,54,55,57,58,60,17,18,19,20,21,22,23,24,25,26,27,28,29,30,31,32,33,34,35,36,37,38,39,40,41,42,43,44,45,46,47,48,49,50,51,52,53,54,56,60,61,18,19,20,21,22,23,24,25,26,27,28,29,30,31,33,34,35,36,37,38,39,40,41,42,44,45,46,47,48,49,50,52,53,54,55,56,61,19,20,21,22,23,24,25,26,27,29,30,31,32,34,35,36,37,38,40,41,42,43,44,45,46,48,49,50,51,58,60,20,21,22,23,24,25,26,27,29,30,31,32,33,34,35,36,37,38,39,40,41,42,43,44,45,46,48,49,50,51,53,56,58,60,21,22,23,24,25,26,28,29,32,33,34,35,36,37,38,39,40,41,42,44,45,46,47,48,49,50,52,53,54,55,57,22,23,24,25,26,27,28,29,30,31,32,33,34,35,36,37,38,40,41,42,43,44,45,46,47,48,49,50,51,52,54,55,57,58,59,60,23,24,25,26,27,28,29,30,32,33,34,35,36,37,38,39,40,41,42,44,45,46,47,48,49,50,52,53,54,55,56,57,61,24,25,26,27,28,29,30,31,32,33,34,35,36,37,38,39,40,41,42,43,44,45,46,47,48,49,50,52,53,54,55,56,57,58,59,61,25,26,27,28,29,30,31,32,33,34,35,36,37,38,39,40,41,42,43,44,45,46,47,49,50,51,52,53,54,56,58,60,61,26,27,28,29,30,31,32,33,34,35,36,37,38,39,41,42,43,44,45,46,47,48,49,50,51,52,54,55,57,58,59,60,27,28,29,30,31,32,33,34,35,36,37,38,39,40,41,42,43,44,45,46,47,48,50,51,52,53,56,58,61,28,29,31,32,33,34,35,36,37,38,39,40,41,42,43,44,45,46,47,48,49,50,52,53,54,55,57,58,59,29,30,31,32,33,34,35,36,37,38,39,40,41,42,43,44,45,46,48,49,50,51,53,56,58,60,30,31,32,33,34,35,36,37,38,39,40,42,43,44,45,47,48,49,50,51,52,53,54,55,58,60,31,32,33,34,35,36,37,38,39,40,41,42,43,44,45,46,47,48,49,50,51,52,53,54,55,57,58,59,60,32,33,34,35,36,37,38,39,40,41,42,44,45,46,47,48,49,50,52,53,54,55,56,57,61,33,34,35,36,37,38,39,40,41,42,43,44,45,46,47,48,49,50,51,52,53,54,55,56,58,60,61,34,35,36,37,38,40,41,42,43,44,45,46,47,48,49,50,51,52,54,55,57,58,59,60,35,36,37,38,39,40,41,42,43,45,46,47,48,49,51,52,53,54,55,56,57,58,59,60,37,38,40,41,43,44,45,46,47,49,50,51,52,54,58,60,37,38,39,40,41,43,44,45,46,47,49,50,51,52,53,54,56,58,60,61,38,39,40,41,42,43,44,45,46,47,48,49,50,51,52,53,54,55,56,57,60,61,39,40,41,42,43,44,45,46,47,48,49,51,52,53,54,55,56,57,58,59,40,41,42,43,44,45,46,47,48,49,50,51,52,54,55,57,58,59,60,41,42,43,44,45,46,47,48,49,50,51,52,54,55,57,58,59,60,42,43,44,45,47,48,49,50,51,52,53,54,55,57,58,59,60,43,44,45,46,47,49,50,51,52,53,54,56,58,60,61,44,45,46,47,48,49,50,52,53,54,55,56,57,61,45,46,47,48,49,51,52,53,54,55,56,57,58,59,60,46,47,48,49,50,51,52,54,55,57,58,59,60,47,48,49,50,51,52,53,54,55,57,58,59,60,48,49,50,51,53,56,58,60,61,49,50,51,52,53,54,56,58,60,61,50,51,52,53,54,55,56,57,58,59,61,51,52,53,54,55,56,57,58,59,60,52,53,54,55,56,57,58,59,61,53,56,58,60,61,54,55,57,58,59,60,56,58,60,61,56,58,60,61,57,58,59,60,58,60,61,60,61,60,61,61];

USEFUL_RES = [{},
	{2,3,4,6,8,9,10,16,18,20,21,22},
	{2,3,4,8,10,16,18,20,21,22},
	{2,3,4,8,10,16,18,20,21,22},
	{1,2,3,4,5,6,8,10,11,12,15,16,17,18,19,20,21,22},
	{6,9},
	{2,3,4,8,10,15,16,17,18,19,20,21,22},
	{4,15,17,19},
	{2,3,4,8,10,14,15,16,17,18,19,20,21,22},
	{1,2,3,4,5,8,10,11,12,15,16,17,18,19,20,21,22},
	{1,2,3,4,7,8,10,11,12,13,14,15,16,17,18,19,20,21,22,23},
	{1,2,3,4,6,7,8,9,10,13,14,16,17,18,20,21,22,23},
	{2,3,4,8,10,16,18,20,21,22},
	{2,3,4,6,8,10,15,16,17,18,19,20,21,22},
	{2,3,4,8,10,16,17,18,20,21,22},
	{1,4,7,11,12,13,14,15,17,18,19,20,21},
	{4,6,9,15,17,18,19,21},
	{1,2,3,4,6,7,8,9,10,11,12,13,14,15,16,17,18,19,20,21,22,23},
	{1,4,5,11,12,15,17,18,19},
	{1,5,6,9,11,12,17,18},
	{4,14},
	{1,2,3,4,5,6,8,10,11,12,16,17,18,20,21,22},
	{1,4,7,13,14,18,20,21},
	{1,4,5,11,12,14,17,18},
	{1,2,3,4,5,6,8,9,10,11,12,16,17,18,20,21,22},
	{2,3,4,8,10,16,18,20,21,22},
	{2,3,4,8,10,16,18,20,21,22},
	{1,4,5,7,11,12,13,14,17,18,20},
	{1,4,5,11,12,17,18},
	{1,2,3,4,5,7,8,10,11,12,13,14,15,16,17,18,19,20,21,22},
	{4,15,17,19},
	{1,2,3,4,5,7,8,10,11,12,13,14,16,17,18,20,21,22},
	{1,2,3,4,6,7,8,9,10,13,14,15,16,17,18,19,20,21,22},
	{1,2,3,4,6,7,8,10,13,14,16,18,20,21,22,23},
	{4,18,20,21},
	{1,2,3,4,5,6,7,8,10,11,12,13,14,16,17,18,20,21,22,23},
	{1,2,3,4,5,7,8,10,11,12,13,14,16,17,18,20,21,22},
	{1,2,3,4,5,7,8,10,11,12,13,14,16,17,18,20,21,22,23},
	{1,4,5,7,11,12,13,14,15,17,18,19,20},
	{2,3,4,8,10,15,16,17,18,19,20,21,22},
	{1,2,3,4,5,7,8,10,11,12,13,14,16,17,18,20,21,22},
	{2,3,4,6,8,9,10,16,18,20,21,22},
	{1,2,3,4,5,6,7,8,9,10,11,12,13,14,15,16,17,18,19,20,21,22,23},
	{1,4,6,11,12,15,17,18,19},
	{1,2,3,4,5,7,8,10,11,12,13,14,15,16,17,18,19,20,21,22,23},
	{1,2,3,4,5,7,8,10,11,12,13,14,15,16,17,18,19,20,21,22,23},
	{1,2,3,4,5,6,8,10,11,12,16,17,18,20,21,22},
	{4,18,20,21},
	{1,2,3,4,7,8,10,13,14,15,16,17,18,19,20,21,22,23},
	{1,2,3,4,6,7,8,9,10,13,14,16,18,20,21,22},
	{1,2,3,4,5,7,8,10,11,12,13,14,15,16,17,18,19,20,21,22,23},
	{1,2,3,4,5,7,8,10,11,12,13,14,16,17,18,20,21,22},
	{1,2,3,4,5,8,10,11,12,16,17,18,20,21,22},
	{1,2,3,4,5,7,8,10,11,12,13,14,15,16,17,18,19,20,21,22,23},
	{1,2,3,4,5,7,8,10,11,12,13,14,15,16,17,18,19,20,21,22,23},
	{1,2,3,4,5,6,7,8,9,10,11,12,13,14,16,17,18,20,21,22},
	{1,4,6,9,11,12,17,18},
	{1,5,11,12,17,18},
	{1,4,6,7,9,13,14,18,20,21,23},
	{2,3,4,8,10,16,18,20,21,22},
	{1,4,7,13,14,20,23},
	{}];

POTENTIAL_ACT = [{5,10,11,12,16,18,19,20,22,23,24,25,28,29,30,32,33,34,36,37,38,39,41,43,44,45,46,47,49,50,51,52,53,54,55,56,57,58,59,61},
	{2,3,4,5,7,9,10,11,12,13,14,15,18,22,25,26,27,30,32,33,34,36,37,38,40,41,42,43,45,46,47,49,50,51,52,53,54,55,56,60},
	{2,3,4,5,7,9,10,11,12,13,14,15,18,22,25,26,27,30,32,33,34,36,37,38,40,41,42,43,45,46,47,49,50,51,52,53,54,55,56,60},
	{2,3,4,5,7,8,9,10,11,12,13,14,15,16,17,18,19,21,22,23,24,25,26,27,28,29,30,31,32,33,34,35,36,37,38,39,40,41,42,43,44,45,46,47,48,49,50,51,52,53,54,55,56,57,59,60,61},
	{5,10,19,20,22,24,25,28,29,30,32,36,37,38,39,41,43,45,46,47,51,52,53,54,55,56,58},
	{2,5,6,12,14,17,18,20,22,25,33,34,36,42,43,44,47,50,56,57,59},
	{11,12,16,18,23,28,30,32,33,34,36,37,38,39,41,43,45,46,49,50,51,52,54,55,56,59,61},
	{2,3,4,5,7,9,10,11,12,13,14,15,18,22,25,26,27,30,32,33,34,36,37,38,40,41,42,43,45,46,47,49,50,51,52,53,54,55,56,60},
	{2,6,12,17,18,20,25,33,42,43,50,56,57,59},
	{2,3,4,5,7,9,10,11,12,13,14,15,18,22,25,26,27,30,32,33,34,36,37,38,40,41,42,43,45,46,47,49,50,51,52,53,54,55,56,60},
	{5,10,11,16,18,19,20,22,24,25,28,29,30,32,36,37,38,39,41,43,44,45,46,47,51,52,53,54,55,56,57,58},
	{5,10,11,16,18,19,20,22,24,25,28,29,30,32,36,37,38,39,41,43,44,45,46,47,51,52,53,54,55,56,57,58},
	{11,12,16,18,23,28,30,32,33,34,36,37,38,39,41,43,45,46,49,50,51,52,54,55,56,59,61},
	{9,11,12,16,18,21,23,24,28,30,32,33,34,36,37,38,39,41,43,45,46,49,50,51,52,54,55,56,59,61},
	{5,7,8,9,10,11,14,16,17,18,19,30,31,33,39,40,43,44,45,46,49,51,54,55},
	{2,3,4,5,7,9,10,11,12,13,14,15,18,22,25,26,27,30,32,33,34,36,37,38,40,41,42,43,45,46,47,49,50,51,52,53,54,55,56,60},
	{5,7,8,9,10,11,12,14,15,16,17,18,19,20,22,24,25,28,29,30,31,32,33,36,37,38,39,40,41,43,44,45,46,47,49,51,52,53,54,55,56,57,58},
	{2,3,4,5,7,9,10,11,12,13,14,15,16,17,18,19,20,22,23,24,25,26,27,28,29,30,32,33,34,35,36,37,38,39,40,41,42,43,44,45,46,47,48,49,50,51,52,53,54,55,56,57,58,59,60},
	{5,7,8,9,10,11,14,16,17,18,19,30,31,33,39,40,43,44,45,46,49,51,54,55},
	{2,3,4,5,7,9,10,11,12,13,14,15,16,18,22,23,25,26,27,28,30,32,33,34,35,36,37,38,39,40,41,42,43,45,46,47,48,49,50,51,52,53,54,55,56,59,60,61},
	{2,3,4,5,7,9,10,11,12,13,14,15,16,17,18,22,23,25,26,27,30,32,33,34,35,36,37,38,40,41,42,43,45,46,47,48,49,50,51,52,53,54,55,56,59,60},
	{2,3,4,5,7,9,10,11,12,13,14,15,18,22,25,26,27,30,32,33,34,36,37,38,40,41,42,43,45,46,47,49,50,51,52,53,54,55,56,60},
	{11,12,18,34,36,38,43,45,46,49,51,54,55,59,61}];
